20
2 0 2
2 1 22
4 0 10
6 1 9
6 2 25
6 3 2
7 5 6
8 0 13
8 3 2
8 4 7
8 6 16
9 4 17
9 6 18
9 7 18
9 8 9
10 0 15
10 1 9
10 2 1
10 3 3
10 4 12
10 5 26
10 6 18
10 7 8
10 8 24
10 9 14
11 0 15
11 1 19
11 2 25
11 3 25
11 5 2
11 8 3
12 1 20
12 2 25
12 3 26
12 4 1
12 5 19
12 6 11
12 7 18
12 9 4
12 11 14
13 0 2
13 1 10
13 3 22
13 5 16
13 7 26
13 12 21
14 0 11
14 4 25
14 5 19
14 6 6
14 8 18
14 11 23
14 13 8
15 0 24
15 1 12
15 3 12
15 4 14
15 5 8
15 10 21
15 11 24
15 14 20
16 1 11
16 2 11
16 4 15
16 5 16
16 7 22
16 9 14
16 10 14
16 14 18
17 0 26
17 2 24
17 4 11
17 5 17
17 7 10
17 8 12
17 9 21
17 10 11
17 11 12
17 12 23
17 14 6
17 15 5
17 16 12
18 2 9
18 3 16
18 6 13
18 7 26
18 8 11
18 14 18
18 17 9
19 1 22
19 3 13
19 4 26
19 5 12
19 6 24
19 7 10
19 8 2
19 12 2
19 14 2
19 16 9
19 17 24
